\* Problem: Unknown *\

Maximize
 obj: + xp_0_0 + xp_1_0 + xp_1_1 + xp_2_0 + xp_2_1 + xp_3_0 + xp_3_1
 + xp_4_0 + xp_5_0 + xp_6_0 + xp_7_0 + xp_8_0 + xp_9_0 + xp_9_1
 + xp_10_0 + xp_11_0 + xp_11_1 + xp_12_0 + xp_12_1 + xp_12_2 + xp_12_3
 + xp_13_0 + xp_13_1 + xp_14_0 + xp_14_1 + xp_15_0 + xp_16_0 + xp_17_0
 + xp_17_1 + xp_18_0 + xp_18_1 + xp_18_2 + xp_18_3 + xp_19_0 + xp_19_1
 + xp_20_0 + xp_21_0 + xp_22_0 + xp_22_1 + xp_23_0 + xp_24_0 + xp_24_1
 + xp_24_2 + xp_25_0 + xp_26_0 + xp_27_0 + xp_28_0 + xp_28_1 + xp_29_0
 + xp_30_0 + xp_30_1 + xp_31_0 + xp_32_0 + xp_32_1 + xp_32_2 + xp_33_0
 + xp_34_0 + xp_34_1 + xp_35_0 + xp_36_0 + xp_37_0 + xp_38_0 + xp_38_1
 + xp_39_0 + xp_40_0 + xp_40_1 + xp_40_2 + xp_41_0 + xp_42_0 + xp_42_1
 + xp_43_0 + xp_44_0 + xp_45_0 + xp_46_0 + xp_47_0 + xp_48_0 + xp_48_1
 + xp_49_0 + xp_50_0 + xp_50_1 + xp_51_0 + xp_52_0 + xp_53_0 + xp_53_1
 + xp_54_0 + xp_55_0 + xp_56_0 + xp_57_0 + xp_57_1 + xp_58_0 + xp_58_1
 + xp_58_2 + xp_59_0 + xp_60_0 + xp_60_1 + xp_61_0 + xp_61_1 + xp_62_0
 + xp_63_0 + xp_63_1 + xp_64_0 + xp_65_0 + xp_65_1 + xp_66_0 + xp_67_0
 + xp_67_1 + xp_68_0 + xp_68_1 + xp_68_2 + xp_68_3 + xp_69_0 + xp_70_0
 + xp_71_0 + xp_72_0 + xp_73_0 + xp_74_0 + xp_74_1 + xp_75_0 + xp_76_0
 + xp_77_0 + xp_77_1 + xp_78_0 + xp_78_1 + xp_78_2 + xp_78_3 + xp_78_4
 + xp_79_0 + xp_79_1 + xp_80_0 + xp_80_1 + xp_81_0 + xp_81_1 + xp_82_0
 + xp_83_0 + xp_84_0 + xp_85_0 + xp_85_1 + xp_86_0 + xp_86_1 + xp_86_2
 + xp_87_0 + xp_88_0 + xp_88_1 + xp_89_0 + xp_89_1 + xp_90_0 + xp_90_1
 + xp_90_2 + xp_91_0 + xp_91_1 + xp_92_0 + xp_92_1 + xp_93_0 + xp_94_0
 + xp_94_1 + xp_95_0 + xp_95_1 + xp_95_2 + xp_96_0 + xp_96_1 + xp_97_0
 + xp_98_0 + xp_98_1 + xp_99_0 + xp_99_1 + xp_100_0 + xp_101_0
 + xp_102_0 + xp_103_0 + xp_104_0 + xp_105_0 + xp_105_1 + xp_106_0
 + xp_107_0 + xp_108_0 + xp_108_1 + xp_108_2 + xp_109_0 + xp_109_1
 + xp_110_0 + xp_111_0 + xp_111_1 + xp_112_0 + xp_112_1 + xp_112_2
 + xp_112_3 + xp_113_0 + xp_114_0 + xp_115_0 + xp_115_1 + xp_116_0
 + xp_116_1 + xp_117_0 + xp_118_0 + xp_119_0 + xp_120_0 + xp_120_1
 + xp_120_2 + xp_121_0 + xp_122_0 + xp_123_0 + xp_123_1 + xp_124_0
 + xp_125_0 + xp_125_1 + xp_126_0 + xp_126_1 + xp_126_2 + xp_126_3
 + xp_126_4 + xp_126_5 + xp_127_0 + xp_127_1 + xp_128_0 + xp_128_1
 + xp_128_2 + xp_129_0 + xp_129_1 + xp_130_0 + xp_131_0 + xp_131_1
 + xp_131_2

Subject To
 r_1: + xp_128_2 + xp_128_1 + xp_123_1 + xp_122_0 + xp_121_0 + xp_108_2
 + xp_107_0 + xp_78_3 + xp_67_1 + xp_57_1 + xp_40_2 + xp_40_1 + xp_25_0
 + xp_22_1 + xp_18_3 + xp_18_2 + xp_18_0 + xp_16_0 + xp_13_1 + xp_4_0
 <= 38762.5113739763
 r_2: + xp_131_2 + xp_131_1 + xp_127_1 + xp_126_5 + xp_126_1 + xp_120_1
 + xp_120_0 + xp_94_1 + xp_93_0 + xp_90_1 + xp_89_1 + xp_85_1 + xp_85_0
 + xp_77_1 + xp_75_0 + xp_74_1 + xp_71_0 + xp_66_0 + xp_65_1 + xp_65_0
 + xp_61_1 + xp_55_0 + xp_52_0 + xp_48_1 + xp_48_0 + xp_42_1 + xp_38_1
 + xp_32_1 + xp_32_0 + xp_28_1 + xp_28_0 + xp_24_2 + xp_24_0 + xp_19_1
 + xp_19_0 + xp_12_3 + xp_12_1 + xp_1_1 <= 34867.2244452528
 r_3: + xp_126_5 + xp_126_4 + xp_114_0 + xp_105_1 + xp_95_0 + xp_76_0
 + xp_68_3 + xp_34_0 <= 38635.1471900089
 r_4: + xp_117_0 + xp_112_3 + xp_95_2 + xp_95_1 + xp_91_1 + xp_91_0
 + xp_88_1 + xp_84_0 + xp_79_1 + xp_79_0 + xp_78_4 + xp_46_0 + xp_43_0
 + xp_40_2 + xp_40_1 + xp_40_0 + xp_34_1 <= 36088.8175494917
 r_5: + xp_130_0 + xp_112_3 + xp_99_0 + xp_88_1 + xp_86_0 + xp_78_4
 + xp_7_0 + xp_2_0 <= 38635.1471900089
 r_6: + xp_126_5 + xp_126_4 + xp_126_2 + xp_119_0 + xp_114_0 + xp_95_0
 + xp_83_0 + xp_81_0 + xp_70_0 + xp_68_3 + xp_68_1 + xp_58_1 + xp_53_0
 + xp_48_1 + xp_45_0 + xp_34_0 + xp_32_2 + xp_32_1 + xp_30_1 + xp_18_0
 <= 38281.3816343724
 r_7: + xp_112_2 + xp_112_1 + xp_111_1 + xp_104_0 + xp_88_0 + xp_82_0
 + xp_81_1 + xp_78_2 + xp_53_1 + xp_50_1 + xp_44_0 + xp_27_0 + xp_18_3
 + xp_18_2 + xp_18_1 + xp_3_1 <= 36088.8175494917
 r_8: + xp_131_2 + xp_131_1 + xp_127_1 + xp_126_5 + xp_126_1 + xp_120_1
 + xp_120_0 + xp_118_0 + xp_103_0 + xp_94_1 + xp_90_1 + xp_89_1
 + xp_77_1 + xp_74_1 + xp_71_0 + xp_61_1 + xp_55_0 + xp_42_1 + xp_38_1
 + xp_32_1 + xp_32_0 + xp_24_2 + xp_24_0 + xp_12_3 + xp_12_1 + xp_1_1
 <= 38762.5113739763
 r_9: + xp_131_0 + xp_127_0 + xp_123_1 + xp_122_0 + xp_120_2 + xp_108_2
 + xp_78_3 + xp_77_0 + xp_67_1 + xp_57_1 + xp_42_0 + xp_33_0 + xp_32_2
 + xp_24_1 <= 38895.0789229341
 r_10: + xp_112_3 + xp_112_2 + xp_112_1 + xp_111_1 + xp_106_0 + xp_99_0
 + xp_98_0 + xp_94_1 + xp_88_1 + xp_88_0 + xp_86_0 + xp_85_0 + xp_78_4
 + xp_78_2 + xp_50_1 + xp_26_0 + xp_24_0 + xp_8_0 + xp_7_0 + xp_3_1
 + xp_2_0 <= 38281.3816343724
 r_11: + xp_119_0 + xp_112_0 + xp_111_0 + xp_95_0 + xp_81_0 + xp_78_3
 + xp_78_1 + xp_78_0 + xp_59_0 + xp_53_0 + xp_50_0 + xp_49_0 + xp_45_0
 + xp_34_0 + xp_18_0 + xp_4_0 + xp_3_0 <= 36180.8219178082
 r_12: + xp_129_0 + xp_128_1 + xp_128_0 + xp_123_0 + xp_117_0 + xp_112_3
 + xp_112_1 + xp_111_1 + xp_108_1 + xp_101_0 + xp_95_2 + xp_91_1
 + xp_82_0 + xp_81_1 + xp_80_1 + xp_79_1 + xp_78_4 + xp_78_2 + xp_78_0
 + xp_73_0 + xp_63_1 + xp_60_0 + xp_50_1 + xp_46_0 + xp_44_0 + xp_40_1
 + xp_40_0 + xp_18_2 + xp_18_1 + xp_17_1 + xp_15_0 + xp_14_1 + xp_13_0
 + xp_9_0 <= 35582.3665893272
 r_13: + xp_129_1 + xp_128_2 + xp_126_3 + xp_123_1 + xp_120_2 + xp_120_1
 + xp_112_2 + xp_109_1 + xp_100_0 + xp_96_1 + xp_95_1 + xp_92_1
 + xp_91_0 + xp_90_0 + xp_80_0 + xp_79_0 + xp_68_0 + xp_63_0 + xp_60_1
 + xp_58_2 + xp_53_1 + xp_40_2 + xp_34_1 + xp_31_0 + xp_30_0 + xp_18_3
 + xp_17_0 + xp_13_1 + xp_9_1 <= 36180.8219178082
 r_14: + xp_131_2 + xp_131_1 + xp_131_0 + xp_126_5 + xp_126_4 + xp_126_2
 + xp_125_1 + xp_125_0 + xp_124_0 + xp_115_1 + xp_115_0 + xp_99_1
 + xp_98_1 + xp_94_0 + xp_86_2 + xp_86_1 + xp_85_1 + xp_77_1 + xp_77_0
 + xp_68_3 + xp_68_1 + xp_65_1 + xp_65_0 + xp_58_1 + xp_56_0 + xp_51_0
 + xp_48_1 + xp_41_0 + xp_38_1 + xp_38_0 + xp_35_0 + xp_32_2 + xp_32_1
 + xp_30_1 + xp_24_2 + xp_24_1 + xp_20_0 + xp_19_1 + xp_19_0 + xp_12_3
 + xp_12_2 + xp_12_1 + xp_12_0 + xp_2_1 + xp_0_0 <= 36088.8175494917
 r_15: + xp_131_2 + xp_131_0 + xp_126_5 + xp_126_4 + xp_126_3 + xp_126_2
 + xp_125_0 + xp_124_0 + xp_120_2 + xp_120_1 + xp_116_0 + xp_115_0
 + xp_109_1 + xp_99_1 + xp_98_1 + xp_96_1 + xp_94_0 + xp_92_1 + xp_90_0
 + xp_89_1 + xp_89_0 + xp_86_1 + xp_85_1 + xp_77_1 + xp_77_0 + xp_68_3
 + xp_68_1 + xp_68_0 + xp_65_0 + xp_58_2 + xp_58_1 + xp_51_0 + xp_48_1
 + xp_42_1 + xp_42_0 + xp_38_1 + xp_38_0 + xp_36_0 + xp_32_2 + xp_32_1
 + xp_28_1 + xp_24_2 + xp_24_1 + xp_19_1 + xp_12_1 + xp_12_0 + xp_11_0
 + xp_0_0 <= 35582.3665893272
 r_16: + xp_128_0 + xp_123_0 + xp_108_1 + xp_108_0 + xp_78_4 + xp_78_2
 + xp_78_1 + xp_78_0 + xp_73_0 + xp_67_0 + xp_57_0 + xp_46_0 + xp_44_0
 + xp_40_0 + xp_22_0 + xp_18_1 + xp_13_0 + xp_6_0 <= 38895.0789229341
 r_17: + xp_129_0 + xp_128_1 + xp_126_0 + xp_112_3 + xp_112_1 + xp_111_1
 + xp_109_0 + xp_97_0 + xp_95_2 + xp_91_1 + xp_90_2 + xp_81_1 + xp_80_1
 + xp_79_1 + xp_68_2 + xp_63_1 + xp_62_0 + xp_61_0 + xp_60_0 + xp_47_0
 + xp_40_1 + xp_22_1 + xp_18_2 + xp_17_1 + xp_12_2 + xp_9_0 + xp_1_0
 <= 34867.2244452528
 r_18: + xp_126_3 + xp_126_1 + xp_126_0 + xp_106_0 + xp_99_0 + xp_98_0
 + xp_94_1 + xp_92_1 + xp_92_0 + xp_86_0 + xp_85_0 + xp_68_2 + xp_68_0
 + xp_58_2 + xp_58_0 + xp_48_0 + xp_32_0 + xp_30_0 + xp_26_0 + xp_24_0
 + xp_5_0 + xp_2_0 <= 36180.8219178082
 r_19: + xp_131_1 + xp_125_1 + xp_116_1 + xp_115_1 + xp_110_0 + xp_108_1
 + xp_86_2 + xp_78_0 + xp_65_1 + xp_56_0 + xp_28_0 + xp_19_0 + xp_14_1
 + xp_12_3 + xp_12_2 + xp_11_1 + xp_3_0 + xp_2_1 <= 36180.8219178082
 r_20: + xp_129_1 + xp_128_2 + xp_123_1 + xp_119_0 + xp_112_2 + xp_112_0
 + xp_111_0 + xp_108_2 + xp_108_0 + xp_107_0 + xp_95_1 + xp_95_0
 + xp_91_0 + xp_81_0 + xp_80_0 + xp_79_0 + xp_78_3 + xp_78_1 + xp_69_0
 + xp_64_0 + xp_63_0 + xp_60_1 + xp_50_0 + xp_49_0 + xp_45_0 + xp_40_2
 + xp_18_3 + xp_18_0 + xp_17_0 + xp_14_0 + xp_13_1 + xp_10_0 + xp_9_1
 + xp_4_0 <= 34867.2244452528
 r_21: + xp_126_5 + xp_126_4 + xp_113_0 + xp_105_1 + xp_99_1 + xp_86_2
 + xp_86_1 + xp_77_1 + xp_77_0 + xp_68_3 + xp_65_1 + xp_65_0 + xp_38_1
 + xp_38_0 + xp_20_0 + xp_2_1 + xp_0_0 <= 36088.8175494917
 r_22: + xp_126_2 + xp_124_0 + xp_105_0 + xp_98_1 + xp_94_0 + xp_85_1
 + xp_83_0 + xp_68_1 + xp_58_1 + xp_48_1 + xp_41_0 + xp_32_2 + xp_32_1
 + xp_30_1 + xp_24_2 + xp_24_1 <= 36088.8175494917
 r_23: + xp_128_2 + xp_128_1 + xp_128_0 + xp_117_0 + xp_112_3 + xp_112_2
 + xp_112_1 + xp_111_1 + xp_104_0 + xp_100_0 + xp_95_2 + xp_95_1
 + xp_91_1 + xp_91_0 + xp_84_0 + xp_82_0 + xp_81_1 + xp_80_1 + xp_80_0
 + xp_79_1 + xp_79_0 + xp_78_4 + xp_78_2 + xp_73_0 + xp_60_1 + xp_60_0
 + xp_53_1 + xp_50_1 + xp_46_0 + xp_44_0 + xp_40_2 + xp_40_1 + xp_40_0
 + xp_34_1 + xp_21_0 + xp_18_3 + xp_18_2 + xp_18_1 + xp_15_0 + xp_9_1
 + xp_9_0 + xp_3_1 <= 36088.8175494917
 r_24: + xp_128_0 + xp_126_5 + xp_126_1 + xp_103_0 + xp_94_1 + xp_90_1
 + xp_89_1 + xp_74_1 + xp_61_1 + xp_40_0 + xp_39_0 + xp_38_1 + xp_22_0
 + xp_18_1 + xp_13_0 + xp_12_3 + xp_12_1 + xp_1_1 <= 38895.0789229341
 r_25: + xp_131_0 + xp_127_0 + xp_126_4 + xp_126_3 + xp_126_2 + xp_126_0
 + xp_120_2 + xp_94_0 + xp_90_2 + xp_90_0 + xp_89_0 + xp_77_0 + xp_74_0
 + xp_61_0 + xp_42_0 + xp_38_0 + xp_32_2 + xp_24_1 + xp_12_2 + xp_12_0
 + xp_1_0 <= 38895.0789229341
 r_26: + xp_128_2 + xp_128_1 + xp_123_1 + xp_121_0 + xp_112_3 + xp_112_2
 + xp_112_1 + xp_112_0 + xp_108_2 + xp_107_0 + xp_81_1 + xp_81_0
 + xp_79_1 + xp_79_0 + xp_78_3 + xp_67_1 + xp_64_0 + xp_60_1 + xp_60_0
 + xp_57_1 + xp_47_0 + xp_40_2 + xp_40_1 + xp_37_0 + xp_29_0 + xp_25_0
 + xp_22_1 + xp_18_3 + xp_18_2 + xp_18_0 + xp_17_1 + xp_17_0 + xp_13_1
 + xp_4_0 <= 34867.2244452528
 r_27: + xp_131_2 + xp_127_1 + xp_126_5 + xp_125_0 + xp_120_1 + xp_116_0
 + xp_115_0 + xp_108_0 + xp_99_1 + xp_98_1 + xp_96_1 + xp_92_1 + xp_89_1
 + xp_86_1 + xp_85_1 + xp_78_1 + xp_77_1 + xp_74_1 + xp_72_0 + xp_67_0
 + xp_65_0 + xp_58_2 + xp_58_1 + xp_57_0 + xp_52_0 + xp_50_0 + xp_48_1
 + xp_42_1 + xp_38_1 + xp_32_1 + xp_28_1 + xp_24_2 + xp_23_0 + xp_19_1
 + xp_14_0 + xp_12_1 + xp_11_0 <= 34867.2244452528
 r_28: + xp_131_1 + xp_126_1 + xp_126_0 + xp_125_1 + xp_120_0 + xp_116_1
 + xp_115_1 + xp_109_0 + xp_99_0 + xp_98_0 + xp_96_0 + xp_94_1 + xp_92_0
 + xp_90_2 + xp_90_1 + xp_86_2 + xp_86_0 + xp_85_0 + xp_75_0 + xp_68_2
 + xp_65_1 + xp_58_0 + xp_54_0 + xp_48_0 + xp_32_0 + xp_28_0 + xp_26_0
 + xp_24_0 + xp_19_0 + xp_12_3 + xp_12_2 + xp_11_1 <= 34867.2244452528
 r_29: + xp_129_1 + xp_129_0 + xp_95_2 + xp_95_1 + xp_95_0 + xp_93_0
 + xp_87_0 + xp_71_0 + xp_62_0 + xp_49_0 + xp_45_0 + xp_10_0 + xp_9_1
 + xp_9_0 + xp_1_1 + xp_1_0 <= 34867.2244452528
 r_30: + xp_125_1 + xp_125_0 + xp_121_0 + xp_102_0 + xp_99_1 + xp_99_0
 + xp_96_1 + xp_96_0 + xp_92_1 + xp_92_0 + xp_57_1 + xp_57_0 + xp_37_0
 + xp_26_0 + xp_23_0 + xp_11_1 + xp_11_0 <= 34867.2244452528

Bounds
 0 <= xp_0_0 <= 235.978179370543
 0 <= xp_1_0 <= 140.451129535111
 0 <= xp_1_1 <= 42.1353388605332
 0 <= xp_2_0 <= 88.4791411692303
 0 <= xp_2_1 <= 26.5437423507691
 0 <= xp_3_0 <= 140.248312019536
 0 <= xp_3_1 <= 42.0744936058609
 0 <= xp_4_0 <= 788.944924269841
 0 <= xp_5_0 <= 1083.45623863509
 0 <= xp_6_0 <= 1792.04993367233
 0 <= xp_7_0 <= 638.327566766575
 0 <= xp_8_0 <= 1509.86485381611
 0 <= xp_9_0 <= 41.6282950715977
 0 <= xp_9_1 <= 66.6052721145564
 0 <= xp_10_0 <= 54.8418562112547
 0 <= xp_11_0 <= 25.555006962345
 0 <= xp_11_1 <= 15.9718793514656
 0 <= xp_12_0 <= 1590.24143523815
 0 <= xp_12_1 <= 159.024143523815
 0 <= xp_12_2 <= 159.024143523815
 0 <= xp_12_3 <= 159.024143523815
 0 <= xp_13_0 <= 174.458556459009
 0 <= xp_13_1 <= 77.537136204004
 0 <= xp_14_0 <= 84.6002561838743
 0 <= xp_14_1 <= 135.360409894199
 0 <= xp_15_0 <= 507.155338568983
 0 <= xp_16_0 <= 2641.17588525092
 0 <= xp_17_0 <= 182.819708538554
 0 <= xp_17_1 <= 114.262317836596
 0 <= xp_18_0 <= 165.712051099873
 0 <= xp_18_1 <= 138.093375916561
 0 <= xp_18_2 <= 27.6186751833122
 0 <= xp_18_3 <= 27.6186751833122
 0 <= xp_19_0 <= 570.089613651647
 0 <= xp_19_1 <= 488.64824027284
 0 <= xp_20_0 <= 128.271937724882
 0 <= xp_21_0 <= 274.538859519082
 0 <= xp_22_0 <= 568.751018048857
 0 <= xp_22_1 <= 663.542854390334
 0 <= xp_23_0 <= 52.0074814311057
 0 <= xp_24_0 <= 209.672747600574
 0 <= xp_24_1 <= 104.836373800287
 0 <= xp_24_2 <= 26.2090934500717
 0 <= xp_25_0 <= 578.93752776857
 0 <= xp_26_0 <= 15.3583563668538
 0 <= xp_27_0 <= 338.015671455907
 0 <= xp_28_0 <= 308.181214914947
 0 <= xp_28_1 <= 359.544750734104
 0 <= xp_29_0 <= 2448.7679786636
 0 <= xp_30_0 <= 141.110286460727
 0 <= xp_30_1 <= 42.333085938218
 0 <= xp_31_0 <= 190.694098580721
 0 <= xp_32_0 <= 1905.6581650212
 0 <= xp_32_1 <= 173.241651365564
 0 <= xp_32_2 <= 173.241651365564
 0 <= xp_33_0 <= 8063.26892398336
 0 <= xp_34_0 <= 196.580876970261
 0 <= xp_34_1 <= 314.529403152418
 0 <= xp_35_0 <= 261.157973929076
 0 <= xp_36_0 <= 319.097867690726
 0 <= xp_37_0 <= 365.041105406164
 0 <= xp_38_0 <= 309.215584244375
 0 <= xp_38_1 <= 25.7679653536979
 0 <= xp_39_0 <= 1574.19856975623
 0 <= xp_40_0 <= 392.117243735315
 0 <= xp_40_1 <= 196.058621867658
 0 <= xp_40_2 <= 261.411495823544
 0 <= xp_41_0 <= 79.9557350772259
 0 <= xp_42_0 <= 314.600389282869
 0 <= xp_42_1 <= 139.822395236831
 0 <= xp_43_0 <= 492.324307742622
 0 <= xp_44_0 <= 458.839135921327
 0 <= xp_45_0 <= 42.5815373947963
 0 <= xp_46_0 <= 1606.43134341886
 0 <= xp_47_0 <= 879.447170156924
 0 <= xp_48_0 <= 2460.72914164458
 0 <= xp_48_1 <= 447.405298480833
 0 <= xp_49_0 <= 88.1292809548649
 0 <= xp_50_0 <= 422.580434574555
 0 <= xp_50_1 <= 362.211801063905
 0 <= xp_51_0 <= 709.977924581039
 0 <= xp_52_0 <= 662.78228870693
 0 <= xp_53_0 <= 175.416869220097
 0 <= xp_53_1 <= 14.6180724350081
 0 <= xp_54_0 <= 3695.69513485146
 0 <= xp_55_0 <= 1185.88922487582
 0 <= xp_56_0 <= 95.8414169845725
 0 <= xp_57_0 <= 174.463626896898
 0 <= xp_57_1 <= 31.7206594357997
 0 <= xp_58_0 <= 3149.47207234501
 0 <= xp_58_1 <= 1049.824024115
 0 <= xp_58_2 <= 349.941341371667
 0 <= xp_59_0 <= 10650.7235197966
 0 <= xp_60_0 <= 260.874029407272
 0 <= xp_60_1 <= 417.398447051635
 0 <= xp_61_0 <= 1490.18141392963
 0 <= xp_61_1 <= 931.363383706021
 0 <= xp_62_0 <= 131.304059582716
 0 <= xp_63_0 <= 101.459462165977
 0 <= xp_63_1 <= 30.4378386497931
 0 <= xp_64_0 <= 994.997379217416
 0 <= xp_65_0 <= 482.502869550943
 0 <= xp_65_1 <= 40.2085724625786
 0 <= xp_66_0 <= 1681.04790739859
 0 <= xp_67_0 <= 342.568924680547
 0 <= xp_67_1 <= 62.2852590328266
 0 <= xp_68_0 <= 680.432482999772
 0 <= xp_68_1 <= 567.027069166477
 0 <= xp_68_2 <= 113.405413833295
 0 <= xp_68_3 <= 113.405413833295
 0 <= xp_69_0 <= 1719.67450323969
 0 <= xp_70_0 <= 632.065575973223
 0 <= xp_71_0 <= 70.9252851962862
 0 <= xp_72_0 <= 599.437308155229
 0 <= xp_73_0 <= 923.610684173199
 0 <= xp_74_0 <= 880.491680362131
 0 <= xp_74_1 <= 73.3743066968442
 0 <= xp_75_0 <= 1765.1563311072
 0 <= xp_76_0 <= 1723.23395063802
 0 <= xp_77_0 <= 440.418235069303
 0 <= xp_77_1 <= 132.125470520791
 0 <= xp_78_0 <= 2154.77891940095
 0 <= xp_78_1 <= 4309.55783880191
 0 <= xp_78_2 <= 12928.6735164057
 0 <= xp_78_3 <= 6464.33675820286
 0 <= xp_78_4 <= 2154.77891940095
 0 <= xp_79_0 <= 656.236353391774
 0 <= xp_79_1 <= 410.147720869859
 0 <= xp_80_0 <= 138.889434665189
 0 <= xp_80_1 <= 86.8058966657434
 0 <= xp_81_0 <= 200.890749176212
 0 <= xp_81_1 <= 60.2672247528637
 0 <= xp_82_0 <= 220.026581770635
 0 <= xp_83_0 <= 504.386879481395
 0 <= xp_84_0 <= 890.982416355204
 0 <= xp_85_0 <= 157.361039896107
 0 <= xp_85_1 <= 251.777663833771
 0 <= xp_86_0 <= 66.0171013193913
 0 <= xp_86_1 <= 79.2205215832696
 0 <= xp_86_2 <= 26.4068405277565
 0 <= xp_87_0 <= 141.455076237203
 0 <= xp_88_0 <= 392.999499928063
 0 <= xp_88_1 <= 32.7499583273386
 0 <= xp_89_0 <= 1881.50766935421
 0 <= xp_89_1 <= 342.092303518947
 0 <= xp_90_0 <= 10029.5188217823
 0 <= xp_90_1 <= 6686.34588118823
 0 <= xp_90_2 <= 5014.75941089117
 0 <= xp_91_0 <= 1467.24782335608
 0 <= xp_91_1 <= 1257.64099144807
 0 <= xp_92_0 <= 61.818778747006
 0 <= xp_92_1 <= 5.15156489558384
 0 <= xp_93_0 <= 130.6449026571
 0 <= xp_94_0 <= 200.900890051991
 0 <= xp_94_1 <= 36.5274345549075
 0 <= xp_95_0 <= 51.982129241659
 0 <= xp_95_1 <= 4.72564811287809
 0 <= xp_95_2 <= 4.72564811287809
 0 <= xp_96_0 <= 97.8290286371994
 0 <= xp_96_1 <= 17.7870961158544
 0 <= xp_97_0 <= 528.38019157382
 0 <= xp_98_0 <= 99.2081877431037
 0 <= xp_98_1 <= 44.0925278858239
 0 <= xp_99_0 <= 15.1504684133903
 0 <= xp_99_1 <= 1.26253903444919
 0 <= xp_100_0 <= 504.189132403711
 0 <= xp_101_0 <= 250.479631734096
 0 <= xp_102_0 <= 75.1438895202288
 0 <= xp_103_0 <= 1443.29000432889
 0 <= xp_104_0 <= 132.226879278578
 0 <= xp_105_0 <= 1229.83471006285
 0 <= xp_105_1 <= 223.606310920519
 0 <= xp_106_0 <= 41.5268863138107
 0 <= xp_107_0 <= 450.863337121373
 0 <= xp_108_0 <= 196.423693395691
 0 <= xp_108_1 <= 196.423693395691
 0 <= xp_108_2 <= 458.321951256613
 0 <= xp_109_0 <= 447.27346709571
 0 <= xp_109_1 <= 521.819044944995
 0 <= xp_110_0 <= 133.54519312981
 0 <= xp_111_0 <= 2481.08694977034
 0 <= xp_111_1 <= 451.106718140062
 0 <= xp_112_0 <= 3609.99966408349
 0 <= xp_112_1 <= 360.999966408349
 0 <= xp_112_2 <= 360.999966408349
 0 <= xp_112_3 <= 360.999966408349
 0 <= xp_113_0 <= 426.474530873579
 0 <= xp_114_0 <= 2403.81347633658
 0 <= xp_115_0 <= 153.33004177407
 0 <= xp_115_1 <= 68.14668523292
 0 <= xp_116_0 <= 98.5287490659302
 0 <= xp_116_1 <= 61.5804681662064
 0 <= xp_117_0 <= 1948.13829365821
 0 <= xp_118_0 <= 3162.63492910577
 0 <= xp_119_0 <= 62.949486396332
 0 <= xp_120_0 <= 1505.82878525618
 0 <= xp_120_1 <= 501.942928418727
 0 <= xp_120_2 <= 167.314309472909
 0 <= xp_121_0 <= 75.7371307532832
 0 <= xp_122_0 <= 2280.48521555382
 0 <= xp_123_0 <= 475.505665263634
 0 <= xp_123_1 <= 39.6254721053028
 0 <= xp_124_0 <= 138.027460223999
 0 <= xp_125_0 <= 16.8338537926558
 0 <= xp_125_1 <= 10.5211586204099
 0 <= xp_126_0 <= 1957.14339134971
 0 <= xp_126_1 <= 7828.57356539882
 0 <= xp_126_2 <= 7828.57356539882
 0 <= xp_126_3 <= 3914.28678269941
 0 <= xp_126_4 <= 1957.14339134971
 0 <= xp_126_5 <= 1957.14339134971
 0 <= xp_127_0 <= 355.863612826433
 0 <= xp_127_1 <= 222.414758016521
 0 <= xp_128_0 <= 187.920569055244
 0 <= xp_128_1 <= 62.6401896850814
 0 <= xp_128_2 <= 156.600474212704
 0 <= xp_129_0 <= 15.1099049102754
 0 <= xp_129_1 <= 33.9972860481197
 0 <= xp_130_0 <= 404.656436635688
 0 <= xp_131_0 <= 236.830012935955
 0 <= xp_131_1 <= 296.037516169943
 0 <= xp_131_2 <= 236.830012935955

End
